
  19    0


   0   9 2 3 4 5 8 15 16 17 18 
  10   3 11 10 6 
   4   2 14 13 
   7   2 11 10 
   2   1 7 
   7   1 12 
   7   1 9 
   9   1 9 
   4   1 19
   6   1 19
  10   1 19
   8   1 19
   8   1 19
  10   1 19
   2   1 19
   1   1 19
   2   1 19
  10   1 19
   0   0 
